p edge 1822 1762
e 1 2
e 1 3
e 1 4
e 1 5
e 1 6
e 1 7
e 1 8
e 1 9
e 1 10
e 1 11
e 1 12
e 1 13
e 1 14
e 1 15
e 1 16
e 1 17
e 1 18
e 1 19
e 1 20
e 1 21
e 1 22
e 1 23
e 1 24
e 25 26
e 25 27
e 25 28
e 25 29
e 25 30
e 25 31
e 25 32
e 25 33
e 25 34
e 25 35
e 25 36
e 25 37
e 25 38
e 25 39
e 25 40
e 25 41
e 25 42
e 25 43
e 25 44
e 25 45
e 25 46
e 25 47
e 25 48
e 25 49
e 25 50
e 25 51
e 25 52
e 25 53
e 25 54
e 25 55
e 25 56
e 25 57
e 25 58
e 25 59
e 60 61
e 60 62
e 60 63
e 60 64
e 60 65
e 60 66
e 60 67
e 60 68
e 60 69
e 60 70
e 60 71
e 60 72
e 60 73
e 60 74
e 60 75
e 60 76
e 60 77
e 60 78
e 60 79
e 60 80
e 60 81
e 60 82
e 83 84
e 83 85
e 83 86
e 83 87
e 83 88
e 83 89
e 83 90
e 83 91
e 83 92
e 83 93
e 83 94
e 83 95
e 83 96
e 83 97
e 83 98
e 83 99
e 83 100
e 83 101
e 83 102
e 83 103
e 83 104
e 83 105
e 83 106
e 83 107
e 83 108
e 83 109
e 83 110
e 83 111
e 83 112
e 83 113
e 83 114
e 83 115
e 83 116
e 83 117
e 118 119
e 118 120
e 118 121
e 118 122
e 118 123
e 118 124
e 118 125
e 118 126
e 118 127
e 118 128
e 118 129
e 118 130
e 118 131
e 118 132
e 118 133
e 118 134
e 118 135
e 118 136
e 118 137
e 118 138
e 118 139
e 118 140
e 118 141
e 118 142
e 118 143
e 118 144
e 118 145
e 118 146
e 118 147
e 118 148
e 118 149
e 118 150
e 118 151
e 118 152
e 118 153
e 118 154
e 118 155
e 118 156
e 157 158
e 157 159
e 157 160
e 157 161
e 157 162
e 157 163
e 157 164
e 157 165
e 157 166
e 157 167
e 157 168
e 157 169
e 157 170
e 157 171
e 157 172
e 157 173
e 157 174
e 157 175
e 157 176
e 157 177
e 157 178
e 157 179
e 157 180
e 157 181
e 157 182
e 157 183
e 157 184
e 157 185
e 157 186
e 157 187
e 157 188
e 157 189
e 157 190
e 157 191
e 157 192
e 157 193
e 157 194
e 157 195
e 157 196
e 157 197
e 157 198
e 157 199
e 157 200
e 157 201
e 157 202
e 157 203
e 157 204
e 205 206
e 205 207
e 205 208
e 205 209
e 205 210
e 205 211
e 205 212
e 205 213
e 205 214
e 205 215
e 205 216
e 205 217
e 205 218
e 205 219
e 205 220
e 205 221
e 205 222
e 205 223
e 205 224
e 205 225
e 205 226
e 205 227
e 205 228
e 205 229
e 205 230
e 205 231
e 205 232
e 205 233
e 205 234
e 205 235
e 236 237
e 236 238
e 236 239
e 236 240
e 236 241
e 236 242
e 236 243
e 236 244
e 236 245
e 236 246
e 236 247
e 236 248
e 236 249
e 236 250
e 251 252
e 251 253
e 251 254
e 251 255
e 251 256
e 251 257
e 251 258
e 251 259
e 251 260
e 251 261
e 251 262
e 251 263
e 251 264
e 251 265
e 251 266
e 251 267
e 251 268
e 251 269
e 251 270
e 251 271
e 251 272
e 251 273
e 251 274
e 251 275
e 251 276
e 251 277
e 251 278
e 251 279
e 251 280
e 251 281
e 251 282
e 283 284
e 283 285
e 283 286
e 283 287
e 283 288
e 283 289
e 283 290
e 283 291
e 283 292
e 283 293
e 283 294
e 283 295
e 283 296
e 283 297
e 283 298
e 283 299
e 283 300
e 283 301
e 283 302
e 283 303
e 283 304
e 283 305
e 306 307
e 306 308
e 306 309
e 306 310
e 306 311
e 306 312
e 306 313
e 306 314
e 306 315
e 306 316
e 306 317
e 306 318
e 306 319
e 306 320
e 306 321
e 306 322
e 306 323
e 306 324
e 306 325
e 306 326
e 306 327
e 306 328
e 306 329
e 306 330
e 306 331
e 332 333
e 332 334
e 332 335
e 332 336
e 332 337
e 332 338
e 332 339
e 332 340
e 332 341
e 332 342
e 332 343
e 332 344
e 332 345
e 332 346
e 332 347
e 332 348
e 332 349
e 332 350
e 332 351
e 332 352
e 332 353
e 332 354
e 332 355
e 332 356
e 332 357
e 332 358
e 332 359
e 332 360
e 332 361
e 332 362
e 332 363
e 332 364
e 332 365
e 332 366
e 332 367
e 332 368
e 332 369
e 332 370
e 332 371
e 332 372
e 332 373
e 332 374
e 332 375
e 332 376
e 332 377
e 332 378
e 332 379
e 332 380
e 332 381
e 382 383
e 382 384
e 382 385
e 382 386
e 382 387
e 382 388
e 382 389
e 382 390
e 382 391
e 382 392
e 382 393
e 382 394
e 382 395
e 382 396
e 382 397
e 382 398
e 382 399
e 382 400
e 382 401
e 382 402
e 382 403
e 382 404
e 382 405
e 382 406
e 407 408
e 407 409
e 407 410
e 407 411
e 407 412
e 407 413
e 407 414
e 407 415
e 407 416
e 407 417
e 407 418
e 407 419
e 407 420
e 407 421
e 407 422
e 407 423
e 407 424
e 407 425
e 407 426
e 407 427
e 407 428
e 407 429
e 407 430
e 407 431
e 407 432
e 407 433
e 407 434
e 407 435
e 407 436
e 407 437
e 407 438
e 407 439
e 407 440
e 407 441
e 407 442
e 407 443
e 407 444
e 445 446
e 445 447
e 445 448
e 445 449
e 445 450
e 445 451
e 445 452
e 445 453
e 445 454
e 445 455
e 445 456
e 445 457
e 445 458
e 445 459
e 445 460
e 445 461
e 445 462
e 445 463
e 445 464
e 445 465
e 445 466
e 445 467
e 445 468
e 445 469
e 445 470
e 445 471
e 445 472
e 445 473
e 445 474
e 445 475
e 445 476
e 477 478
e 477 479
e 477 480
e 477 481
e 477 482
e 477 483
e 477 484
e 477 485
e 477 486
e 477 487
e 477 488
e 477 489
e 477 490
e 477 491
e 477 492
e 477 493
e 477 494
e 477 495
e 496 497
e 496 498
e 496 499
e 496 500
e 496 501
e 496 502
e 496 503
e 496 504
e 496 505
e 496 506
e 496 507
e 496 508
e 496 509
e 496 510
e 496 511
e 496 512
e 496 513
e 496 514
e 496 515
e 496 516
e 496 517
e 496 518
e 496 519
e 496 520
e 496 521
e 496 522
e 496 523
e 496 524
e 496 525
e 496 526
e 496 527
e 528 529
e 528 530
e 528 531
e 528 532
e 528 533
e 528 534
e 528 535
e 528 536
e 528 537
e 528 538
e 528 539
e 528 540
e 528 541
e 528 542
e 528 543
e 528 544
e 545 546
e 545 547
e 545 548
e 545 549
e 545 550
e 545 551
e 545 552
e 545 553
e 545 554
e 545 555
e 545 556
e 545 557
e 545 558
e 545 559
e 545 560
e 545 561
e 545 562
e 545 563
e 545 564
e 545 565
e 545 566
e 545 567
e 545 568
e 545 569
e 545 570
e 571 572
e 571 573
e 571 574
e 571 575
e 571 576
e 571 577
e 571 578
e 571 579
e 571 580
e 571 581
e 571 582
e 571 583
e 571 584
e 571 585
e 586 587
e 586 588
e 586 589
e 586 590
e 586 591
e 586 592
e 586 593
e 586 594
e 586 595
e 586 596
e 586 597
e 586 598
e 586 599
e 586 600
e 586 601
e 586 602
e 586 603
e 586 604
e 586 605
e 586 606
e 586 607
e 586 608
e 586 609
e 586 610
e 586 611
e 586 612
e 586 613
e 586 614
e 586 615
e 586 616
e 586 617
e 586 618
e 586 619
e 586 620
e 621 622
e 621 623
e 621 624
e 621 625
e 621 626
e 621 627
e 621 628
e 621 629
e 621 630
e 621 631
e 621 632
e 621 633
e 621 634
e 621 635
e 621 636
e 621 637
e 621 638
e 621 639
e 621 640
e 621 641
e 621 642
e 621 643
e 621 644
e 621 645
e 621 646
e 621 647
e 621 648
e 649 650
e 649 651
e 649 652
e 649 653
e 649 654
e 649 655
e 649 656
e 649 657
e 649 658
e 649 659
e 649 660
e 649 661
e 649 662
e 649 663
e 649 664
e 649 665
e 649 666
e 649 667
e 668 669
e 668 670
e 668 671
e 668 672
e 668 673
e 668 674
e 668 675
e 668 676
e 668 677
e 668 678
e 668 679
e 668 680
e 668 681
e 668 682
e 668 683
e 668 684
e 668 685
e 668 686
e 668 687
e 668 688
e 668 689
e 668 690
e 668 691
e 668 692
e 668 693
e 668 694
e 668 695
e 668 696
e 668 697
e 668 698
e 668 699
e 668 700
e 668 701
e 668 702
e 668 703
e 668 704
e 668 705
e 668 706
e 707 708
e 707 709
e 707 710
e 707 711
e 707 712
e 707 713
e 707 714
e 707 715
e 707 716
e 707 717
e 707 718
e 707 719
e 707 720
e 707 721
e 707 722
e 707 723
e 707 724
e 707 725
e 707 726
e 707 727
e 707 728
e 707 729
e 707 730
e 707 731
e 707 732
e 707 733
e 707 734
e 707 735
e 707 736
e 707 737
e 707 738
e 707 739
e 707 740
e 707 741
e 707 742
e 707 743
e 707 744
e 707 745
e 707 746
e 707 747
e 707 748
e 707 749
e 707 750
e 707 751
e 707 752
e 707 753
e 707 754
e 707 755
e 707 756
e 757 758
e 757 759
e 757 760
e 757 761
e 757 762
e 757 763
e 757 764
e 757 765
e 757 766
e 757 767
e 757 768
e 769 770
e 769 771
e 769 772
e 769 773
e 769 774
e 769 775
e 769 776
e 769 777
e 769 778
e 769 779
e 769 780
e 769 781
e 769 782
e 769 783
e 769 784
e 769 785
e 769 786
e 769 787
e 769 788
e 769 789
e 769 790
e 769 791
e 769 792
e 793 794
e 793 795
e 793 796
e 793 797
e 793 798
e 793 799
e 793 800
e 793 801
e 793 802
e 793 803
e 793 804
e 793 805
e 793 806
e 793 807
e 793 808
e 793 809
e 793 810
e 793 811
e 793 812
e 793 813
e 793 814
e 793 815
e 793 816
e 793 817
e 793 818
e 793 819
e 793 820
e 793 821
e 793 822
e 793 823
e 793 824
e 825 826
e 825 827
e 825 828
e 825 829
e 825 830
e 825 831
e 825 832
e 825 833
e 825 834
e 825 835
e 825 836
e 837 838
e 837 839
e 837 840
e 837 841
e 837 842
e 837 843
e 837 844
e 837 845
e 837 846
e 837 847
e 837 848
e 837 849
e 837 850
e 837 851
e 837 852
e 853 854
e 853 855
e 853 856
e 853 857
e 853 858
e 853 859
e 853 860
e 853 861
e 853 862
e 853 863
e 853 864
e 853 865
e 853 866
e 853 867
e 853 868
e 853 869
e 853 870
e 853 871
e 853 872
e 853 873
e 853 874
e 853 875
e 853 876
e 853 877
e 853 878
e 853 879
e 853 880
e 853 881
e 853 882
e 853 883
e 853 884
e 853 885
e 853 886
e 853 887
e 853 888
e 889 890
e 889 891
e 889 892
e 889 893
e 889 894
e 889 895
e 889 896
e 889 897
e 889 898
e 889 899
e 889 900
e 889 901
e 889 902
e 889 903
e 889 904
e 889 905
e 889 906
e 889 907
e 889 908
e 889 909
e 889 910
e 889 911
e 889 912
e 889 913
e 889 914
e 889 915
e 889 916
e 889 917
e 918 919
e 918 920
e 918 921
e 918 922
e 918 923
e 918 924
e 918 925
e 918 926
e 918 927
e 918 928
e 918 929
e 918 930
e 918 931
e 918 932
e 918 933
e 918 934
e 918 935
e 918 936
e 918 937
e 918 938
e 918 939
e 918 940
e 918 941
e 918 942
e 918 943
e 918 944
e 918 945
e 918 946
e 918 947
e 918 948
e 918 949
e 918 950
e 918 951
e 918 952
e 918 953
e 918 954
e 918 955
e 918 956
e 918 957
e 918 958
e 918 959
e 918 960
e 918 961
e 918 962
e 918 963
e 918 964
e 918 965
e 918 966
e 918 967
e 918 968
e 969 970
e 969 971
e 969 972
e 969 973
e 969 974
e 969 975
e 969 976
e 969 977
e 969 978
e 969 979
e 969 980
e 969 981
e 969 982
e 969 983
e 969 984
e 969 985
e 969 986
e 969 987
e 969 988
e 969 989
e 969 990
e 969 991
e 969 992
e 969 993
e 969 994
e 969 995
e 969 996
e 969 997
e 969 998
e 999 1000
e 999 1001
e 999 1002
e 999 1003
e 999 1004
e 999 1005
e 999 1006
e 999 1007
e 999 1008
e 999 1009
e 999 1010
e 999 1011
e 999 1012
e 999 1013
e 999 1014
e 999 1015
e 999 1016
e 999 1017
e 999 1018
e 999 1019
e 999 1020
e 999 1021
e 999 1022
e 999 1023
e 999 1024
e 999 1025
e 999 1026
e 999 1027
e 999 1028
e 999 1029
e 999 1030
e 999 1031
e 999 1032
e 999 1033
e 999 1034
e 999 1035
e 999 1036
e 999 1037
e 999 1038
e 999 1039
e 999 1040
e 999 1041
e 999 1042
e 999 1043
e 999 1044
e 999 1045
e 999 1046
e 999 1047
e 1048 1049
e 1048 1050
e 1048 1051
e 1048 1052
e 1048 1053
e 1048 1054
e 1048 1055
e 1048 1056
e 1048 1057
e 1048 1058
e 1048 1059
e 1048 1060
e 1048 1061
e 1048 1062
e 1048 1063
e 1048 1064
e 1048 1065
e 1048 1066
e 1048 1067
e 1048 1068
e 1048 1069
e 1048 1070
e 1048 1071
e 1048 1072
e 1048 1073
e 1048 1074
e 1048 1075
e 1048 1076
e 1048 1077
e 1048 1078
e 1048 1079
e 1048 1080
e 1048 1081
e 1048 1082
e 1048 1083
e 1048 1084
e 1048 1085
e 1048 1086
e 1048 1087
e 1048 1088
e 1048 1089
e 1048 1090
e 1048 1091
e 1048 1092
e 1048 1093
e 1094 1095
e 1094 1096
e 1094 1097
e 1094 1098
e 1094 1099
e 1094 1100
e 1094 1101
e 1094 1102
e 1094 1103
e 1094 1104
e 1094 1105
e 1094 1106
e 1094 1107
e 1094 1108
e 1094 1109
e 1094 1110
e 1111 1112
e 1111 1113
e 1111 1114
e 1111 1115
e 1111 1116
e 1111 1117
e 1111 1118
e 1111 1119
e 1111 1120
e 1111 1121
e 1111 1122
e 1111 1123
e 1111 1124
e 1111 1125
e 1126 1127
e 1126 1128
e 1126 1129
e 1126 1130
e 1126 1131
e 1126 1132
e 1126 1133
e 1126 1134
e 1126 1135
e 1126 1136
e 1126 1137
e 1126 1138
e 1126 1139
e 1126 1140
e 1126 1141
e 1126 1142
e 1126 1143
e 1126 1144
e 1126 1145
e 1126 1146
e 1126 1147
e 1126 1148
e 1126 1149
e 1126 1150
e 1126 1151
e 1126 1152
e 1126 1153
e 1126 1154
e 1126 1155
e 1126 1156
e 1126 1157
e 1126 1158
e 1126 1159
e 1126 1160
e 1126 1161
e 1126 1162
e 1126 1163
e 1126 1164
e 1126 1165
e 1126 1166
e 1126 1167
e 1126 1168
e 1169 1170
e 1169 1171
e 1169 1172
e 1169 1173
e 1169 1174
e 1169 1175
e 1169 1176
e 1169 1177
e 1169 1178
e 1169 1179
e 1169 1180
e 1169 1181
e 1169 1182
e 1169 1183
e 1169 1184
e 1169 1185
e 1169 1186
e 1169 1187
e 1169 1188
e 1169 1189
e 1169 1190
e 1169 1191
e 1169 1192
e 1169 1193
e 1169 1194
e 1169 1195
e 1169 1196
e 1169 1197
e 1169 1198
e 1169 1199
e 1200 1201
e 1200 1202
e 1200 1203
e 1200 1204
e 1200 1205
e 1200 1206
e 1200 1207
e 1200 1208
e 1200 1209
e 1200 1210
e 1200 1211
e 1200 1212
e 1200 1213
e 1200 1214
e 1200 1215
e 1200 1216
e 1200 1217
e 1200 1218
e 1200 1219
e 1200 1220
e 1200 1221
e 1200 1222
e 1200 1223
e 1200 1224
e 1200 1225
e 1200 1226
e 1200 1227
e 1200 1228
e 1200 1229
e 1200 1230
e 1200 1231
e 1200 1232
e 1200 1233
e 1200 1234
e 1235 1236
e 1235 1237
e 1235 1238
e 1235 1239
e 1235 1240
e 1235 1241
e 1235 1242
e 1235 1243
e 1235 1244
e 1235 1245
e 1235 1246
e 1235 1247
e 1235 1248
e 1235 1249
e 1235 1250
e 1235 1251
e 1235 1252
e 1235 1253
e 1235 1254
e 1235 1255
e 1235 1256
e 1235 1257
e 1235 1258
e 1235 1259
e 1235 1260
e 1235 1261
e 1235 1262
e 1235 1263
e 1235 1264
e 1235 1265
e 1235 1266
e 1235 1267
e 1235 1268
e 1235 1269
e 1235 1270
e 1235 1271
e 1235 1272
e 1235 1273
e 1235 1274
e 1235 1275
e 1276 1277
e 1276 1278
e 1276 1279
e 1276 1280
e 1276 1281
e 1276 1282
e 1276 1283
e 1276 1284
e 1276 1285
e 1276 1286
e 1276 1287
e 1276 1288
e 1276 1289
e 1276 1290
e 1276 1291
e 1276 1292
e 1276 1293
e 1276 1294
e 1276 1295
e 1276 1296
e 1276 1297
e 1276 1298
e 1276 1299
e 1276 1300
e 1276 1301
e 1276 1302
e 1276 1303
e 1304 1305
e 1304 1306
e 1304 1307
e 1304 1308
e 1304 1309
e 1304 1310
e 1304 1311
e 1304 1312
e 1304 1313
e 1304 1314
e 1304 1315
e 1304 1316
e 1304 1317
e 1304 1318
e 1304 1319
e 1304 1320
e 1304 1321
e 1304 1322
e 1304 1323
e 1304 1324
e 1304 1325
e 1304 1326
e 1304 1327
e 1304 1328
e 1304 1329
e 1304 1330
e 1304 1331
e 1304 1332
e 1304 1333
e 1304 1334
e 1304 1335
e 1304 1336
e 1304 1337
e 1304 1338
e 1304 1339
e 1304 1340
e 1304 1341
e 1342 1343
e 1342 1344
e 1342 1345
e 1342 1346
e 1342 1347
e 1342 1348
e 1342 1349
e 1342 1350
e 1342 1351
e 1342 1352
e 1353 1354
e 1353 1355
e 1353 1356
e 1353 1357
e 1353 1358
e 1353 1359
e 1353 1360
e 1353 1361
e 1353 1362
e 1353 1363
e 1353 1364
e 1353 1365
e 1353 1366
e 1353 1367
e 1353 1368
e 1353 1369
e 1353 1370
e 1353 1371
e 1353 1372
e 1353 1373
e 1353 1374
e 1353 1375
e 1353 1376
e 1353 1377
e 1353 1378
e 1379 1380
e 1379 1381
e 1379 1382
e 1379 1383
e 1379 1384
e 1379 1385
e 1379 1386
e 1379 1387
e 1379 1388
e 1379 1389
e 1379 1390
e 1379 1391
e 1392 1393
e 1392 1394
e 1392 1395
e 1392 1396
e 1392 1397
e 1392 1398
e 1392 1399
e 1392 1400
e 1392 1401
e 1392 1402
e 1392 1403
e 1392 1404
e 1392 1405
e 1392 1406
e 1392 1407
e 1392 1408
e 1392 1409
e 1392 1410
e 1392 1411
e 1392 1412
e 1392 1413
e 1392 1414
e 1392 1415
e 1392 1416
e 1392 1417
e 1392 1418
e 1392 1419
e 1392 1420
e 1392 1421
e 1392 1422
e 1392 1423
e 1392 1424
e 1392 1425
e 1392 1426
e 1392 1427
e 1392 1428
e 1392 1429
e 1392 1430
e 1392 1431
e 1392 1432
e 1392 1433
e 1392 1434
e 1392 1435
e 1392 1436
e 1392 1437
e 1392 1438
e 1392 1439
e 1392 1440
e 1441 1442
e 1441 1443
e 1441 1444
e 1441 1445
e 1441 1446
e 1441 1447
e 1441 1448
e 1441 1449
e 1441 1450
e 1441 1451
e 1441 1452
e 1441 1453
e 1441 1454
e 1441 1455
e 1441 1456
e 1441 1457
e 1441 1458
e 1459 1460
e 1459 1461
e 1459 1462
e 1459 1463
e 1459 1464
e 1459 1465
e 1459 1466
e 1459 1467
e 1459 1468
e 1459 1469
e 1459 1470
e 1459 1471
e 1459 1472
e 1459 1473
e 1459 1474
e 1459 1475
e 1459 1476
e 1459 1477
e 1459 1478
e 1459 1479
e 1459 1480
e 1459 1481
e 1459 1482
e 1459 1483
e 1459 1484
e 1459 1485
e 1459 1486
e 1459 1487
e 1459 1488
e 1459 1489
e 1459 1490
e 1459 1491
e 1459 1492
e 1459 1493
e 1459 1494
e 1459 1495
e 1459 1496
e 1459 1497
e 1459 1498
e 1459 1499
e 1459 1500
e 1459 1501
e 1459 1502
e 1459 1503
e 1459 1504
e 1459 1505
e 1459 1506
e 1459 1507
e 1508 1509
e 1508 1510
e 1508 1511
e 1508 1512
e 1508 1513
e 1508 1514
e 1508 1515
e 1508 1516
e 1508 1517
e 1508 1518
e 1508 1519
e 1508 1520
e 1508 1521
e 1508 1522
e 1508 1523
e 1508 1524
e 1508 1525
e 1508 1526
e 1508 1527
e 1508 1528
e 1508 1529
e 1508 1530
e 1508 1531
e 1508 1532
e 1508 1533
e 1508 1534
e 1508 1535
e 1508 1536
e 1508 1537
e 1538 1539
e 1538 1540
e 1538 1541
e 1538 1542
e 1538 1543
e 1538 1544
e 1538 1545
e 1538 1546
e 1538 1547
e 1538 1548
e 1538 1549
e 1538 1550
e 1538 1551
e 1538 1552
e 1538 1553
e 1538 1554
e 1538 1555
e 1538 1556
e 1538 1557
e 1538 1558
e 1538 1559
e 1538 1560
e 1538 1561
e 1538 1562
e 1538 1563
e 1538 1564
e 1538 1565
e 1538 1566
e 1538 1567
e 1538 1568
e 1538 1569
e 1538 1570
e 1538 1571
e 1538 1572
e 1573 1574
e 1573 1575
e 1573 1576
e 1573 1577
e 1573 1578
e 1573 1579
e 1573 1580
e 1573 1581
e 1573 1582
e 1573 1583
e 1573 1584
e 1573 1585
e 1573 1586
e 1573 1587
e 1573 1588
e 1573 1589
e 1573 1590
e 1591 1592
e 1591 1593
e 1591 1594
e 1591 1595
e 1591 1596
e 1591 1597
e 1591 1598
e 1591 1599
e 1591 1600
e 1591 1601
e 1591 1602
e 1591 1603
e 1591 1604
e 1591 1605
e 1591 1606
e 1591 1607
e 1591 1608
e 1591 1609
e 1591 1610
e 1591 1611
e 1591 1612
e 1591 1613
e 1591 1614
e 1591 1615
e 1591 1616
e 1591 1617
e 1591 1618
e 1591 1619
e 1591 1620
e 1591 1621
e 1591 1622
e 1591 1623
e 1591 1624
e 1591 1625
e 1591 1626
e 1591 1627
e 1591 1628
e 1591 1629
e 1591 1630
e 1631 1632
e 1631 1633
e 1631 1634
e 1631 1635
e 1631 1636
e 1631 1637
e 1631 1638
e 1631 1639
e 1631 1640
e 1631 1641
e 1631 1642
e 1631 1643
e 1631 1644
e 1631 1645
e 1631 1646
e 1631 1647
e 1631 1648
e 1631 1649
e 1631 1650
e 1631 1651
e 1631 1652
e 1631 1653
e 1631 1654
e 1631 1655
e 1631 1656
e 1657 1658
e 1657 1659
e 1657 1660
e 1657 1661
e 1657 1662
e 1657 1663
e 1657 1664
e 1657 1665
e 1657 1666
e 1657 1667
e 1657 1668
e 1657 1669
e 1657 1670
e 1657 1671
e 1657 1672
e 1673 1674
e 1673 1675
e 1673 1676
e 1673 1677
e 1673 1678
e 1673 1679
e 1673 1680
e 1673 1681
e 1673 1682
e 1673 1683
e 1673 1684
e 1673 1685
e 1673 1686
e 1673 1687
e 1673 1688
e 1673 1689
e 1673 1690
e 1673 1691
e 1673 1692
e 1673 1693
e 1673 1694
e 1673 1695
e 1673 1696
e 1673 1697
e 1673 1698
e 1673 1699
e 1673 1700
e 1673 1701
e 1673 1702
e 1673 1703
e 1673 1704
e 1673 1705
e 1706 1707
e 1706 1708
e 1706 1709
e 1706 1710
e 1706 1711
e 1706 1712
e 1706 1713
e 1706 1714
e 1706 1715
e 1706 1716
e 1706 1717
e 1706 1718
e 1706 1719
e 1706 1720
e 1706 1721
e 1706 1722
e 1706 1723
e 1706 1724
e 1706 1725
e 1706 1726
e 1706 1727
e 1706 1728
e 1706 1729
e 1706 1730
e 1706 1731
e 1706 1732
e 1706 1733
e 1706 1734
e 1706 1735
e 1706 1736
e 1706 1737
e 1706 1738
e 1706 1739
e 1706 1740
e 1706 1741
e 1706 1742
e 1706 1743
e 1706 1744
e 1745 1746
e 1745 1747
e 1745 1748
e 1745 1749
e 1745 1750
e 1745 1751
e 1745 1752
e 1745 1753
e 1745 1754
e 1745 1755
e 1745 1756
e 1745 1757
e 1745 1758
e 1745 1759
e 1745 1760
e 1745 1761
e 1745 1762
e 1745 1763
e 1745 1764
e 1745 1765
e 1745 1766
e 1745 1767
e 1745 1768
e 1745 1769
e 1745 1770
e 1745 1771
e 1745 1772
e 1745 1773
e 1745 1774
e 1745 1775
e 1745 1776
e 1745 1777
e 1745 1778
e 1745 1779
e 1745 1780
e 1745 1781
e 1745 1782
e 1745 1783
e 1745 1784
e 1745 1785
e 1745 1786
e 1745 1787
e 1745 1788
e 1745 1789
e 1745 1790
e 1745 1791
e 1792 1793
e 1792 1794
e 1792 1795
e 1792 1796
e 1792 1797
e 1792 1798
e 1792 1799
e 1792 1800
e 1792 1801
e 1792 1802
e 1792 1803
e 1792 1804
e 1792 1805
e 1792 1806
e 1792 1807
e 1792 1808
e 1792 1809
e 1792 1810
e 1792 1811
e 1792 1812
e 1792 1813
e 1792 1814
e 1792 1815
e 1792 1816
e 1792 1817
e 1792 1818
e 1792 1819
e 1792 1820
e 1792 1821
e 1792 1822
